************************************************************************
file with basedata            : md335_.bas
initial value random generator: 1261547580
************************************************************************
projects                      :  1
jobs (incl. supersource/sink ):  22
horizon                       :  161
RESOURCES
  - renewable                 :  2   R
  - nonrenewable              :  2   N
  - doubly constrained        :  0   D
************************************************************************
PROJECT INFORMATION:
pronr.  #jobs rel.date duedate tardcost  MPM-Time
    1     20      0       19       13       19
************************************************************************
PRECEDENCE RELATIONS:
jobnr.    #modes  #successors   successors
   1        1          3           2   3   4
   2        3          3          11  15  18
   3        3          2           5  10
   4        3          3           5   6   9
   5        3          2           8  15
   6        3          2           7  13
   7        3          3          11  16  20
   8        3          2          12  19
   9        3          2          14  17
  10        3          1          12
  11        3          1          19
  12        3          2          17  18
  13        3          3          16  17  19
  14        3          3          15  16  20
  15        3          1          21
  16        3          1          18
  17        3          2          20  21
  18        3          1          21
  19        3          1          22
  20        3          1          22
  21        3          1          22
  22        1          0        
************************************************************************
REQUESTS/DURATIONS:
jobnr. mode duration  R 1  R 2  N 1  N 2
------------------------------------------------------------------------
  1      1     0       0    0    0    0
  2      1     8       6    4    2    0
         2     9       5    4    2    0
         3    10       5    4    0    3
  3      1     2      10    9    5    0
         2     4       9    5    3    0
         3     5       8    3    0    5
  4      1     1       6    7    3    0
         2     2       6    7    0   10
         3     4       5    5    0    7
  5      1     3       7   10    0    1
         2     8       7    9    0    1
         3    10       6    6    2    0
  6      1     2       5    9    0    6
         2     3       3    8    9    0
         3    10       3    6    0    5
  7      1     5       7    4    3    0
         2     6       6    3    0    6
         3    10       6    2    0    5
  8      1     1       2    9    0    6
         2     5       1    8    0    3
         3     5       2    7    0    5
  9      1     1      10   10    0    5
         2     4       8    9    8    0
         3     7       7    9    0    5
 10      1     3       6    2   10    0
         2     9       6    1    9    0
         3    10       5    1    8    0
 11      1     4       9    7    0    5
         2     6       5    6    4    0
         3     8       3    6    3    0
 12      1     1       4    5    7    0
         2     7       3    3    4    0
         3     7       2    4    0    1
 13      1     1       4    8    4    0
         2     2       2    6    4    0
         3     4       2    5    0    4
 14      1     2       8   10   10    0
         2     8       6    9    6    0
         3    10       6    9    0    9
 15      1     4       8    3    6    0
         2     9       5    3    0    4
         3    10       3    2    5    0
 16      1     6       8   10    8    0
         2     8       6    9    8    0
         3     9       6    9    0    2
 17      1     4       6    8    8    0
         2    10       1    6    0    3
         3    10       6    5    6    0
 18      1     3       5    7    0    7
         2     5       4    6    0    5
         3     7       4    6    0    4
 19      1     5       8    4    0    2
         2     6       8    2    0    2
         3     6       6    3    0    1
 20      1     1       8    8    0    8
         2     3       5    7    0    5
         3     9       4    6    4    0
 21      1     2      10    3    0    3
         2     4       7    2    7    0
         3    10       4    2    6    0
 22      1     0       0    0    0    0
************************************************************************
RESOURCEAVAILABILITIES:
  R 1  R 2  N 1  N 2
   31   31   54   49
************************************************************************
MAXIMAL LAGS:
from  to  type  delay
    1   12   ES      0
    1    2   ES      0
    2   12   ES      0
    1    3   ES      0
    3   12   ES      0
    1    4   ES      0
    4   12   ES      0
    1    5   ES      0
    5   12   ES      0
    1    6   ES      0
    6   12   ES      0
    1    7   ES      0
    7   12   ES      0
    1    8   ES      0
    8   12   ES      0
    1    9   ES      0
    9   12   ES      0
    1   10   ES      0
   10   12   ES      0
    1   11   ES      0
   11   12   ES      0
    1   12   ES      0
    2   11   SS     -6
    2   11   SE     10
    2   11   ES     -6
    2   11   EE      7
    2   15   SS    -11
    2   15   SE     -9
    2   15   ES      6
    2   15   EE     11
    2   18   SS      8
    2   18   SE      4
    2   18   ES    -10
    2   18   EE      3
    3    5   SS     11
    3    5   SE     10
    3    5   ES      7
    3    5   EE     10
    3   10   SS     -3
    3   10   SE      1
    3   10   ES      7
    3   10   EE     -2
    4    5   SS     -4
    4    5   SE      4
    4    5   ES      6
    4    5   EE      7
    4    6   SS     -1
    4    6   SE     -8
    4    6   ES      7
    4    6   EE      6
    4    9   SS      3
    4    9   SE      4
    4    9   ES     11
    4    9   EE      8
    5    8   SS      3
    5    8   SE      3
    5    8   ES     -7
    5    8   EE      7
    5   15   SS     -5
    5   15   SE     10
    5   15   ES     -3
    5   15   EE     -6
    6    7   SS    -12
    6    7   SE     -9
    6    7   ES    -12
    6    7   EE      2
    6   13   SS      8
    6   13   SE     -9
    6   13   ES     11
    6   13   EE     -6
    7   11   SS      7
    7   11   SE      1
    7   11   ES      1
    7   11   EE    -11
    7   16   SS     -2
    7   16   SE     -1
    7   16   ES      5
    7   16   EE      8
    7   20   SS     -6
    7   20   SE    -12
    7   20   ES      8
    7   20   EE     -6
    8   19   SS     10
    8   19   SE     -3
    8   19   ES     -4
    8   19   EE    -10
    9   14   SS     -3
    9   14   SE     -3
    9   14   ES      4
    9   14   EE      5
    9   17   SS     -2
    9   17   SE     12
    9   17   ES    -12
    9   17   EE     -9
   11   19   SS      9
   11   19   SE     -2
   11   19   ES     -2
   11   19   EE      0
   12   17   SS     11
   12   17   SE      6
   12   17   ES      7
   12   17   EE    -12
   12   18   SS     -7
   12   18   SE     -6
   12   18   ES     -2
   12   18   EE     -2
   13   16   SS      9
   13   16   SE      3
   13   16   ES      3
   13   16   EE    -11
   13   17   SS      8
   13   17   SE     -8
   13   17   ES      3
   13   17   EE     -8
   13   19   SS      8
   13   19   SE      2
   13   19   ES      5
   13   19   EE     -2
   14   15   SS      2
   14   15   SE      1
   14   15   ES     11
   14   15   EE    -11
   14   16   SS      4
   14   16   SE     -3
   14   16   ES      6
   14   16   EE     11
   14   20   SS      9
   14   20   SE     -2
   14   20   ES      5
   14   20   EE      5
   15   21   SS    -12
   15   21   SE     -6
   15   21   ES      6
   15   21   EE      9
   16   18   SS     -2
   16   18   SE     -1
   16   18   ES    -10
   16   18   EE     -8
   17   20   SS     -4
   17   20   SE    -12
   17   20   ES     -2
   17   20   EE      0
   17   21   SS      8
   17   21   SE      5
   17   21   ES     -7
   17   21   EE      6
   18   21   SS      7
   18   21   SE      0
   18   21   ES     -7
   18   21   EE      7
   19   22   SS     -9
   19   22   SE     12
   19   22   ES     -3
   19   22   EE     10
   20   22   SS     -2
   20   22   SE     10
   20   22   ES    -11
   20   22   EE     -4
   21   22   SS      1
   21   22   SE    -10
   21   22   ES      3
   21   22   EE     -5
************************************************************************
